unsat
(:max-memory         18.01
 :memory             17.90
 :nlsat-conflicts    1
 :nlsat-propagations 3
 :nlsat-stages       1
 :num-allocs         5108
 :rlimit-count       1095
 :time               0.00)
